% seed = 0

mint = 24;
% maxt = 76;

nActs = 27;
dur = [0,2,1,3,3,2,4,4,1,2,5,1,3,1,5,2,4,4,4,5,1,4,2,4,4,5,0];

nSkills = 3;
sreq = [| 0,0,0,
	| 0,1,1,
	| 1,1,0,
	| 1,0,1,
	| 0,0,1,
	| 1,0,0,
	| 1,0,0,
	| 1,0,0,
	| 0,0,1,
	| 1,0,0,
	| 1,0,0,
	| 1,0,0,
	| 1,0,0,
	| 1,0,0,
	| 0,0,1,
	| 1,1,0,
	| 1,0,1,
	| 0,0,1,
	| 0,0,1,
	| 1,0,0,
	| 0,1,0,
	| 0,0,1,
	| 0,1,0,
	| 1,1,0,
	| 1,0,0,
	| 0,0,1,
	| 0,0,0, |];

% SumOfsreq = 31;

nResources = 3;
mastery = [| false,true,false,
	| true,false,true,
	| true,true,true, |];

nPrecs = 90;
pred = [1,1,1,1,1,1,1,1,1,1,1,1,1,1,1,1,1,1,1,1,1,1,1,1,1,2,2,2,2,3,3,3,3,3,4,4,4,5,5,5,6,6,6,7,7,7,8,8,9,9,10,10,10,11,11,11,11,11,11,12,12,12,13,13,14,14,15,15,15,15,15,16,16,16,17,17,17,17,18,19,19,20,20,21,22,23,24,24,25,26];
succ = [2,3,4,5,6,7,8,9,10,11,12,13,14,15,16,17,18,19,20,21,22,23,24,25,26,25,27,20,8,9,18,27,13,8,27,13,23,18,27,21,9,27,8,9,27,15,27,15,27,24,18,27,15,13,14,17,22,23,27,27,13,24,27,23,27,23,17,26,27,21,23,19,20,27,25,18,27,24,27,26,27,27,21,27,27,27,26,27,27,27];

nUnrels = 205;
unpred = [2,2,2,2,2,2,2,2,2,2,2,2,2,2,3,3,3,3,3,3,3,3,3,3,3,3,4,4,4,4,4,4,4,4,4,4,4,4,4,4,4,4,4,4,4,4,5,5,5,5,5,5,5,5,5,5,5,5,5,5,5,5,5,5,5,6,6,6,6,6,6,6,6,6,6,7,7,7,7,7,7,7,7,7,7,8,8,8,8,8,8,8,8,8,8,9,9,9,9,9,9,9,9,9,9,9,9,9,9,9,10,10,10,10,10,10,10,10,11,11,11,11,11,11,12,12,12,12,12,12,12,12,12,12,13,13,13,13,13,13,13,13,13,13,13,13,14,14,14,14,14,14,14,14,14,14,14,15,15,15,15,16,16,16,16,16,16,17,17,17,17,17,18,18,18,18,18,18,18,18,19,19,19,19,19,19,20,20,20,20,20,21,21,21,21,21,22,22,22,22,23,23,23,24,25];
unsucc = [3,4,5,6,7,9,10,11,12,13,14,16,19,22,4,5,6,7,10,11,12,14,16,19,20,22,5,6,7,8,9,10,11,12,14,15,16,17,18,19,20,21,22,24,25,26,6,7,8,9,10,11,12,13,14,15,16,17,19,20,22,23,24,25,26,7,10,11,12,13,14,16,19,20,22,8,10,11,12,13,14,16,19,20,22,9,10,11,12,13,14,16,19,20,22,10,11,12,13,14,15,16,17,18,19,20,21,22,23,25,11,12,13,14,16,19,20,22,12,15,16,19,20,21,14,15,16,17,18,19,20,21,22,25,14,15,16,17,18,19,20,21,22,24,25,26,15,16,17,18,19,20,21,22,24,25,26,16,19,20,22,17,18,22,23,24,25,19,20,21,22,23,19,20,21,22,23,24,25,26,20,21,22,23,24,25,22,23,24,25,26,22,23,24,25,26,23,24,25,26,24,25,26,25,26];

USEFUL_RES = [{},
	{1,2,3},
	{1,2,3},
	{2,3},
	{2,3},
	{2,3},
	{2,3},
	{2,3},
	{2,3},
	{2,3},
	{2,3},
	{2,3},
	{2,3},
	{2,3},
	{2,3},
	{1,2,3},
	{2,3},
	{2,3},
	{2,3},
	{2,3},
	{1,3},
	{2,3},
	{1,3},
	{1,2,3},
	{2,3},
	{2,3},
	{}];

POTENTIAL_ACT = [{2,3,16,21,23,24},
	{2,3,4,5,6,7,8,9,10,11,12,13,14,15,16,17,18,19,20,22,24,25,26},
	{2,3,4,5,6,7,8,9,10,11,12,13,14,15,16,17,18,19,20,21,22,23,24,25,26}];
